
Gurobi 13.0.1 (linux64) logging started Wed Mar 25 20:28:22 2026

Set parameter LogFile to value "logs_sparse/50B_3F_robust_gamma_0d15_theta_0d05199999999999999_2026-03-25_20h28m16s.log"
Set parameter MIPGap to value 0.005
Set parameter OptimalityTol to value 0.005
Gurobi Optimizer version 13.0.1 build v13.0.1rc0 (linux64 - "Linux Mint 22")

CPU model: 12th Gen Intel(R) Core(TM) i7-12700, instruction set [SSE2|AVX|AVX2]
Thread count: 20 physical cores, 20 logical processors, using up to 20 threads

Non-default parameters:
TimeLimit  3600
SoftMemLimit  12
MIPGap  0.005
OptimalityTol  0.005

Optimize a model with 30471 rows, 390571 columns and 1204034 nonzeros (Max)
Model fingerprint: 0x83f97971
Model has 367561 linear objective coefficients
Variable types: 8071 continuous, 382500 integer (382500 binary)
Coefficient statistics:
  Matrix range     [3e-05, 1e+05]
  Objective range  [1e+00, 3e+03]
  Bounds range     [1e+00, 1e+05]
  RHS range        [8e-03, 1e+05]

Presolve removed 15658 rows and 282196 columns
Presolve time: 0.61s
Presolved: 14813 rows, 108375 columns, 345908 nonzeros
Variable types: 3921 continuous, 104454 integer (104454 binary)
Found heuristic solution: objective -3.92155e+08
Deterministic concurrent LP optimizer: primal and dual simplex
Showing primal log only...

Concurrent spin time: 0.50s (can be avoided by choosing Method=3)

Solved with dual simplex

Root relaxation: objective 1.180164e+08, 11043 iterations, 2.21 seconds (3.42 work units)

    Nodes    |    Current Node    |     Objective Bounds      |     Work
 Expl Unexpl |  Obj  Depth IntInf | Incumbent    BestBd   Gap | It/Node Time

     0     0 1.1802e+08    0 4025 -3.922e+08 1.1802e+08   130%     -    3s
H    0     0                    -1.71295e+08 1.1802e+08   169%     -    3s
H    0     0                    -8.79724e+07 1.1802e+08   234%     -    4s
H    0     0                    -7.59099e+07 1.1802e+08   255%     -    4s
H    0     0                    -6.56034e+07 1.1802e+08   280%     -    5s
H    0     0                    -6.38114e+07 1.1802e+08   285%     -    8s
H    0     0                    -3.81490e+07 1.1802e+08   409%     -    9s
H    0     0                    4.338725e+07 1.1802e+08   172%     -    9s
H    0     0                    5.155608e+07 1.1802e+08   129%     -   10s
H    0     0                    5.804322e+07 1.1802e+08   103%     -   11s
H    0     0                    6.027380e+07 1.1802e+08  95.8%     -   15s
H    0     0                    6.383889e+07 1.1802e+08  84.9%     -   15s
H    0     0                    9.451520e+07 1.1802e+08  24.9%     -   27s
     0     0 1.1802e+08    0 3712 9.4515e+07 1.1802e+08  24.9%     -   29s
H    0     0                    9.451645e+07 1.1802e+08  24.9%     -   30s
H    0     0                    9.454753e+07 1.1802e+08  24.8%     -   35s
     0     0 1.1802e+08    0 3670 9.4548e+07 1.1802e+08  24.8%     -   62s
H    0     0                    9.628459e+07 1.1802e+08  22.6%     -   79s
H    0     0                    9.993715e+07 1.1802e+08  18.1%     -   79s
H    0     0                    1.031203e+08 1.1802e+08  14.4%     -   79s
H    0     0                    1.032184e+08 1.1802e+08  14.3%     -   79s
H    0     0                    1.033407e+08 1.1802e+08  14.2%     -   79s
     0     0 1.1802e+08    0 4828 1.0334e+08 1.1802e+08  14.2%     -   79s
H    0     0                    1.036137e+08 1.1802e+08  13.9%     -   83s
H    0     0                    1.059092e+08 1.1802e+08  11.4%     -   90s
H    0     0                    1.074398e+08 1.1802e+08  9.84%     -   99s
H    0     0                    1.074666e+08 1.1802e+08  9.82%     -  102s
H    0     0                    1.082791e+08 1.1802e+08  8.99%     -  105s
H    0     0                    1.084192e+08 1.1802e+08  8.85%     -  117s
H    0     0                    1.085333e+08 1.1802e+08  8.74%     -  128s
H    0     0                    1.087479e+08 1.1802e+08  8.52%     -  132s
H    0     0                    1.088691e+08 1.1802e+08  8.40%     -  132s
H    0     0                    1.089141e+08 1.1802e+08  8.36%     -  134s
H    0     0                    1.092026e+08 1.1802e+08  8.07%     -  134s
H    0     0                    1.092152e+08 1.1802e+08  8.06%     -  138s
H    0     0                    1.092218e+08 1.1802e+08  8.05%     -  141s
H    0     0                    1.092897e+08 1.1802e+08  7.98%     -  141s
H    0     0                    1.094068e+08 1.1802e+08  7.87%     -  141s
H    0     0                    1.094131e+08 1.1802e+08  7.86%     -  141s
H    0     0                    1.096161e+08 1.1802e+08  7.66%     -  165s
     0     0 1.1802e+08    0 4491 1.0962e+08 1.1802e+08  7.66%     -  166s
     0     0 1.1802e+08    0 5002 1.0962e+08 1.1802e+08  7.66%     -  189s
     0     0 1.1802e+08    0 4989 1.0962e+08 1.1802e+08  7.66%     -  197s
H    0     0                    1.096525e+08 1.1802e+08  7.63%     -  215s
H    0     0                    1.096548e+08 1.1802e+08  7.62%     -  215s
     0     0 1.1802e+08    0 5347 1.0965e+08 1.1802e+08  7.62%     -  215s
     0     0 1.1802e+08    0 4530 1.0965e+08 1.1802e+08  7.62%     -  220s
     0     0 1.1802e+08    0 5109 1.0965e+08 1.1802e+08  7.62%     -  234s
     0     0 1.1802e+08    0 5109 1.0965e+08 1.1802e+08  7.62%     -  234s
     0     0 1.1802e+08    0 4986 1.0965e+08 1.1802e+08  7.62%     -  235s
     0     2 1.1802e+08    0 4928 1.0965e+08 1.1802e+08  7.62%     -  269s
     1     4 1.1802e+08    1 4884 1.0965e+08 1.1802e+08  7.62%  4666  282s
     3     7 1.1802e+08    2 4957 1.0965e+08 1.1802e+08  7.62% 14085  302s
     6    13 1.1802e+08    3 4848 1.0965e+08 1.1802e+08  7.62% 19317  351s
    12    20 1.1801e+08    4 3826 1.0965e+08 1.1802e+08  7.62% 22551  943s
    19    38 1.1801e+08    5 3703 1.0965e+08 1.1802e+08  7.62% 144161 1116s
H   23    38                    1.097794e+08 1.1802e+08  7.50% 127956 1116s
    37    58 1.1801e+08    5 4293 1.0978e+08 1.1802e+08  7.50% 111402 1228s
H   40    58                    1.097801e+08 1.1802e+08  7.50% 103184 1228s
H   45    58                    1.097858e+08 1.1802e+08  7.50% 93093 1228s
H   57   151                    1.107549e+08 1.1802e+08  6.56% 74975 1366s
H   83   151                    1.108581e+08 1.1802e+08  6.46% 53701 1366s
H   92   151                    1.110892e+08 1.1802e+08  6.23% 49072 1366s
H  150   169                    1.115122e+08 1.1802e+08  5.83% 33358 1421s
H  151   169                    1.116748e+08 1.1802e+08  5.68% 33279 1421s
H  153   169                    1.120425e+08 1.1802e+08  5.33% 32889 1422s
H  154   169                    1.123399e+08 1.1802e+08  5.05% 32687 1422s
H  163   169                    1.124535e+08 1.1802e+08  4.95% 31461 1422s
H  168   248                    1.124875e+08 1.1802e+08  4.91% 31001 1549s
H  177   248                    1.126200e+08 1.1802e+08  4.79% 29836 1549s
H  193   248                    1.128214e+08 1.1802e+08  4.60% 27952 1549s
H  198   248                    1.129260e+08 1.1802e+08  4.51% 27608 1549s
   247   421 1.1801e+08   15 4117 1.1293e+08 1.1802e+08  4.51% 24269 1785s
H  420   445                    1.129268e+08 1.1802e+08  4.51% 18166 2009s
H  437   445                    1.130283e+08 1.1802e+08  4.41% 17837 2009s
H  444   492                    1.131092e+08 1.1802e+08  4.34% 17727 2305s
H  451   492                    1.133979e+08 1.1802e+08  4.07% 17568 2305s
   491   722 1.1797e+08   31 3821 1.1340e+08 1.1802e+08  4.07% 17083 2741s
   721  1441 1.1797e+08   44 3136 1.1340e+08 1.1802e+08  4.07% 14577 3600s

Cutting planes:
  Gomory: 11
  MIR: 26
  Flow cover: 155
  Zero half: 1
  RLT: 2200
  Relax-and-lift: 70

Explored 1440 nodes (16279222 simplex iterations) in 3600.05 seconds (3665.73 work units)
Thread count was 20 (of 20 available processors)

Solution count 10: 1.13398e+08 1.13109e+08 1.13028e+08 ... 1.1234e+08

Time limit reached
Best objective 1.133978685471e+08, best bound 1.180152864496e+08, gap 4.0719%
